sat
(:max-memory         18.11
 :memory             17.97
 :nlsat-propagations 9
 :nlsat-stages       4
 :num-allocs         6430
 :rlimit-count       3371
 :time               0.00
 :total-time         0.01)
